\ LP format - for model browsing. Use MPS format to capture full model detail.
Maximize
  x0,1_3 + x0,1_7 + x0,1_10 + x0,1_13 + x0,1_14 + x0,1_17 + x0,1_20
   + x0,1_21 + x0,1_31 + x0,1_34 + x0,2_3 + x0,2_7 + x0,2_10 + x0,2_13
   + x0,2_14 + x0,2_17 + x0,2_20 + x0,2_21 + x0,2_31 + x0,2_34 + x0,3_3
   + x0,3_7 + x0,3_10 + x0,3_13 + x0,3_14 + x0,3_17 + x0,3_20 + x0,3_21
   + x0,3_31 + x0,3_34 + x0,4_3 + x0,4_7 + x0,4_10 + x0,4_13 + x0,4_14
   + x0,4_17 + x0,4_20 + x0,4_21 + x0,4_31 + x0,4_34 + x0,5_3 + x0,5_7
   + x0,5_10 + x0,5_13 + x0,5_14 + x0,5_17 + x0,5_20 + x0,5_21 + x0,5_31
   + x0,5_34 + x1,2_3 + x1,2_7 + x1,2_10 + x1,2_13 + x1,2_14 + x1,2_17
   + x1,2_20 + x1,2_21 + x1,2_31 + x1,2_34 + x1,3_3 + x1,3_7 + x1,3_10
   + x1,3_13 + x1,3_14 + x1,3_17 + x1,3_20 + x1,3_21 + x1,3_31 + x1,3_34
   + x1,4_3 + x1,4_7 + x1,4_10 + x1,4_13 + x1,4_14 + x1,4_17 + x1,4_20
   + x1,4_21 + x1,4_31 + x1,4_34 + x1,5_3 + x1,5_7 + x1,5_10 + x1,5_13
   + x1,5_14 + x1,5_17 + x1,5_20 + x1,5_21 + x1,5_31 + x1,5_34 + x2,3_3
   + x2,3_7 + x2,3_10 + x2,3_13 + x2,3_14 + x2,3_17 + x2,3_20 + x2,3_21
   + x2,3_31 + x2,3_34 + x2,4_3 + x2,4_7 + x2,4_10 + x2,4_13 + x2,4_14
   + x2,4_17 + x2,4_20 + x2,4_21 + x2,4_31 + x2,4_34 + x2,5_3 + x2,5_7
   + x2,5_10 + x2,5_13 + x2,5_14 + x2,5_17 + x2,5_20 + x2,5_21 + x2,5_31
   + x2,5_34 + x3,4_3 + x3,4_7 + x3,4_10 + x3,4_13 + x3,4_14 + x3,4_17
   + x3,4_20 + x3,4_21 + x3,4_31 + x3,4_34 + x3,5_3 + x3,5_7 + x3,5_10
   + x3,5_13 + x3,5_14 + x3,5_17 + x3,5_20 + x3,5_21 + x3,5_31 + x3,5_34
   + x4,5_3 + x4,5_7 + x4,5_10 + x4,5_13 + x4,5_14 + x4,5_17 + x4,5_20
   + x4,5_21 + x4,5_31 + x4,5_34
Subject To
 R0: x0,1_3 + x0,2_3 + x0,3_3 + x0,4_3 + x0,5_3 + x1,2_3 + x1,3_3 + x1,4_3
   + x1,5_3 + x2,3_3 + x2,4_3 + x2,5_3 + x3,4_3 + x3,5_3 + x4,5_3 <= 1
 R1: x0,1_7 + x0,2_7 + x0,3_7 + x0,4_7 + x0,5_7 + x1,2_7 + x1,3_7 + x1,4_7
   + x1,5_7 + x2,3_7 + x2,4_7 + x2,5_7 + x3,4_7 + x3,5_7 + x4,5_7 <= 1
 R2: x0,1_10 + x0,2_10 + x0,3_10 + x0,4_10 + x0,5_10 + x1,2_10 + x1,3_10
   + x1,4_10 + x1,5_10 + x2,3_10 + x2,4_10 + x2,5_10 + x3,4_10 + x3,5_10
   + x4,5_10 <= 1
 R3: x0,1_13 + x0,2_13 + x0,3_13 + x0,4_13 + x0,5_13 + x1,2_13 + x1,3_13
   + x1,4_13 + x1,5_13 + x2,3_13 + x2,4_13 + x2,5_13 + x3,4_13 + x3,5_13
   + x4,5_13 <= 1
 R4: x0,1_14 + x0,2_14 + x0,3_14 + x0,4_14 + x0,5_14 + x1,2_14 + x1,3_14
   + x1,4_14 + x1,5_14 + x2,3_14 + x2,4_14 + x2,5_14 + x3,4_14 + x3,5_14
   + x4,5_14 <= 1
 R5: x0,1_17 + x0,2_17 + x0,3_17 + x0,4_17 + x0,5_17 + x1,2_17 + x1,3_17
   + x1,4_17 + x1,5_17 + x2,3_17 + x2,4_17 + x2,5_17 + x3,4_17 + x3,5_17
   + x4,5_17 <= 1
 R6: x0,1_20 + x0,2_20 + x0,3_20 + x0,4_20 + x0,5_20 + x1,2_20 + x1,3_20
   + x1,4_20 + x1,5_20 + x2,3_20 + x2,4_20 + x2,5_20 + x3,4_20 + x3,5_20
   + x4,5_20 <= 1
 R7: x0,1_21 + x0,2_21 + x0,3_21 + x0,4_21 + x0,5_21 + x1,2_21 + x1,3_21
   + x1,4_21 + x1,5_21 + x2,3_21 + x2,4_21 + x2,5_21 + x3,4_21 + x3,5_21
   + x4,5_21 <= 1
 R8: x0,1_31 + x0,2_31 + x0,3_31 + x0,4_31 + x0,5_31 + x1,2_31 + x1,3_31
   + x1,4_31 + x1,5_31 + x2,3_31 + x2,4_31 + x2,5_31 + x3,4_31 + x3,5_31
   + x4,5_31 <= 1
 R9: x0,1_34 + x0,2_34 + x0,3_34 + x0,4_34 + x0,5_34 + x1,2_34 + x1,3_34
   + x1,4_34 + x1,5_34 + x2,3_34 + x2,4_34 + x2,5_34 + x3,4_34 + x3,5_34
   + x4,5_34 <= 1
 R10: x0,1_3 + x0,1_7 + x0,1_10 + x0,1_13 + x0,1_14 + x0,1_17 + x0,1_20
   + x0,1_21 + x0,1_31 + x0,1_34 <= 1
 R11: x0,2_3 + x0,2_7 + x0,2_10 + x0,2_13 + x0,2_14 + x0,2_17 + x0,2_20
   + x0,2_21 + x0,2_31 + x0,2_34 <= 1
 R12: x0,3_3 + x0,3_7 + x0,3_10 + x0,3_13 + x0,3_14 + x0,3_17 + x0,3_20
   + x0,3_21 + x0,3_31 + x0,3_34 <= 1
 R13: x0,4_3 + x0,4_7 + x0,4_10 + x0,4_13 + x0,4_14 + x0,4_17 + x0,4_20
   + x0,4_21 + x0,4_31 + x0,4_34 <= 1
 R14: x0,5_3 + x0,5_7 + x0,5_10 + x0,5_13 + x0,5_14 + x0,5_17 + x0,5_20
   + x0,5_21 + x0,5_31 + x0,5_34 <= 1
 R15: x1,2_3 + x1,2_7 + x1,2_10 + x1,2_13 + x1,2_14 + x1,2_17 + x1,2_20
   + x1,2_21 + x1,2_31 + x1,2_34 <= 1
 R16: x1,3_3 + x1,3_7 + x1,3_10 + x1,3_13 + x1,3_14 + x1,3_17 + x1,3_20
   + x1,3_21 + x1,3_31 + x1,3_34 <= 1
 R17: x1,4_3 + x1,4_7 + x1,4_10 + x1,4_13 + x1,4_14 + x1,4_17 + x1,4_20
   + x1,4_21 + x1,4_31 + x1,4_34 <= 1
 R18: x1,5_3 + x1,5_7 + x1,5_10 + x1,5_13 + x1,5_14 + x1,5_17 + x1,5_20
   + x1,5_21 + x1,5_31 + x1,5_34 <= 1
 R19: x2,3_3 + x2,3_7 + x2,3_10 + x2,3_13 + x2,3_14 + x2,3_17 + x2,3_20
   + x2,3_21 + x2,3_31 + x2,3_34 <= 1
 R20: x2,4_3 + x2,4_7 + x2,4_10 + x2,4_13 + x2,4_14 + x2,4_17 + x2,4_20
   + x2,4_21 + x2,4_31 + x2,4_34 <= 1
 R21: x2,5_3 + x2,5_7 + x2,5_10 + x2,5_13 + x2,5_14 + x2,5_17 + x2,5_20
   + x2,5_21 + x2,5_31 + x2,5_34 <= 1
 R22: x3,4_3 + x3,4_7 + x3,4_10 + x3,4_13 + x3,4_14 + x3,4_17 + x3,4_20
   + x3,4_21 + x3,4_31 + x3,4_34 <= 1
 R23: x3,5_3 + x3,5_7 + x3,5_10 + x3,5_13 + x3,5_14 + x3,5_17 + x3,5_20
   + x3,5_21 + x3,5_31 + x3,5_34 <= 1
 R24: x4,5_3 + x4,5_7 + x4,5_10 + x4,5_13 + x4,5_14 + x4,5_17 + x4,5_20
   + x4,5_21 + x4,5_31 + x4,5_34 <= 1
 R25: p0 - p1 <= -1
 R26: - 3 x0,1_3 - p0 + p1 >= 0
 R27: 170 x0,1_3 - p0 + p1 <= 173
 R28: - 7 x0,1_7 - p0 + p1 >= 0
 R29: 170 x0,1_7 - p0 + p1 <= 177
 R30: - 10 x0,1_10 - p0 + p1 >= 0
 R31: 170 x0,1_10 - p0 + p1 <= 180
 R32: - 13 x0,1_13 - p0 + p1 >= 0
 R33: 170 x0,1_13 - p0 + p1 <= 183
 R34: - 14 x0,1_14 - p0 + p1 >= 0
 R35: 170 x0,1_14 - p0 + p1 <= 184
 R36: - 17 x0,1_17 - p0 + p1 >= 0
 R37: 170 x0,1_17 - p0 + p1 <= 187
 R38: - 20 x0,1_20 - p0 + p1 >= 0
 R39: 170 x0,1_20 - p0 + p1 <= 190
 R40: - 21 x0,1_21 - p0 + p1 >= 0
 R41: 170 x0,1_21 - p0 + p1 <= 191
 R42: - 31 x0,1_31 - p0 + p1 >= 0
 R43: 170 x0,1_31 - p0 + p1 <= 201
 R44: - 34 x0,1_34 - p0 + p1 >= 0
 R45: 170 x0,1_34 - p0 + p1 <= 204
 R46: p0 - p2 <= -1
 R47: - 3 x0,2_3 - p0 + p2 >= 0
 R48: 170 x0,2_3 - p0 + p2 <= 173
 R49: - 7 x0,2_7 - p0 + p2 >= 0
 R50: 170 x0,2_7 - p0 + p2 <= 177
 R51: - 10 x0,2_10 - p0 + p2 >= 0
 R52: 170 x0,2_10 - p0 + p2 <= 180
 R53: - 13 x0,2_13 - p0 + p2 >= 0
 R54: 170 x0,2_13 - p0 + p2 <= 183
 R55: - 14 x0,2_14 - p0 + p2 >= 0
 R56: 170 x0,2_14 - p0 + p2 <= 184
 R57: - 17 x0,2_17 - p0 + p2 >= 0
 R58: 170 x0,2_17 - p0 + p2 <= 187
 R59: - 20 x0,2_20 - p0 + p2 >= 0
 R60: 170 x0,2_20 - p0 + p2 <= 190
 R61: - 21 x0,2_21 - p0 + p2 >= 0
 R62: 170 x0,2_21 - p0 + p2 <= 191
 R63: - 31 x0,2_31 - p0 + p2 >= 0
 R64: 170 x0,2_31 - p0 + p2 <= 201
 R65: - 34 x0,2_34 - p0 + p2 >= 0
 R66: 170 x0,2_34 - p0 + p2 <= 204
 R67: p0 - p3 <= -1
 R68: - 3 x0,3_3 - p0 + p3 >= 0
 R69: 170 x0,3_3 - p0 + p3 <= 173
 R70: - 7 x0,3_7 - p0 + p3 >= 0
 R71: 170 x0,3_7 - p0 + p3 <= 177
 R72: - 10 x0,3_10 - p0 + p3 >= 0
 R73: 170 x0,3_10 - p0 + p3 <= 180
 R74: - 13 x0,3_13 - p0 + p3 >= 0
 R75: 170 x0,3_13 - p0 + p3 <= 183
 R76: - 14 x0,3_14 - p0 + p3 >= 0
 R77: 170 x0,3_14 - p0 + p3 <= 184
 R78: - 17 x0,3_17 - p0 + p3 >= 0
 R79: 170 x0,3_17 - p0 + p3 <= 187
 R80: - 20 x0,3_20 - p0 + p3 >= 0
 R81: 170 x0,3_20 - p0 + p3 <= 190
 R82: - 21 x0,3_21 - p0 + p3 >= 0
 R83: 170 x0,3_21 - p0 + p3 <= 191
 R84: - 31 x0,3_31 - p0 + p3 >= 0
 R85: 170 x0,3_31 - p0 + p3 <= 201
 R86: - 34 x0,3_34 - p0 + p3 >= 0
 R87: 170 x0,3_34 - p0 + p3 <= 204
 R88: p0 - p4 <= -1
 R89: - 3 x0,4_3 - p0 + p4 >= 0
 R90: 170 x0,4_3 - p0 + p4 <= 173
 R91: - 7 x0,4_7 - p0 + p4 >= 0
 R92: 170 x0,4_7 - p0 + p4 <= 177
 R93: - 10 x0,4_10 - p0 + p4 >= 0
 R94: 170 x0,4_10 - p0 + p4 <= 180
 R95: - 13 x0,4_13 - p0 + p4 >= 0
 R96: 170 x0,4_13 - p0 + p4 <= 183
 R97: - 14 x0,4_14 - p0 + p4 >= 0
 R98: 170 x0,4_14 - p0 + p4 <= 184
 R99: - 17 x0,4_17 - p0 + p4 >= 0
 R100: 170 x0,4_17 - p0 + p4 <= 187
 R101: - 20 x0,4_20 - p0 + p4 >= 0
 R102: 170 x0,4_20 - p0 + p4 <= 190
 R103: - 21 x0,4_21 - p0 + p4 >= 0
 R104: 170 x0,4_21 - p0 + p4 <= 191
 R105: - 31 x0,4_31 - p0 + p4 >= 0
 R106: 170 x0,4_31 - p0 + p4 <= 201
 R107: - 34 x0,4_34 - p0 + p4 >= 0
 R108: 170 x0,4_34 - p0 + p4 <= 204
 R109: p0 - p5 <= -1
 R110: - 3 x0,5_3 - p0 + p5 >= 0
 R111: 170 x0,5_3 - p0 + p5 <= 173
 R112: - 7 x0,5_7 - p0 + p5 >= 0
 R113: 170 x0,5_7 - p0 + p5 <= 177
 R114: - 10 x0,5_10 - p0 + p5 >= 0
 R115: 170 x0,5_10 - p0 + p5 <= 180
 R116: - 13 x0,5_13 - p0 + p5 >= 0
 R117: 170 x0,5_13 - p0 + p5 <= 183
 R118: - 14 x0,5_14 - p0 + p5 >= 0
 R119: 170 x0,5_14 - p0 + p5 <= 184
 R120: - 17 x0,5_17 - p0 + p5 >= 0
 R121: 170 x0,5_17 - p0 + p5 <= 187
 R122: - 20 x0,5_20 - p0 + p5 >= 0
 R123: 170 x0,5_20 - p0 + p5 <= 190
 R124: - 21 x0,5_21 - p0 + p5 >= 0
 R125: 170 x0,5_21 - p0 + p5 <= 191
 R126: - 31 x0,5_31 - p0 + p5 >= 0
 R127: 170 x0,5_31 - p0 + p5 <= 201
 R128: - 34 x0,5_34 - p0 + p5 >= 0
 R129: 170 x0,5_34 - p0 + p5 <= 204
 R130: p1 - p2 <= -1
 R131: - 3 x1,2_3 - p1 + p2 >= 0
 R132: 170 x1,2_3 - p1 + p2 <= 173
 R133: - 7 x1,2_7 - p1 + p2 >= 0
 R134: 170 x1,2_7 - p1 + p2 <= 177
 R135: - 10 x1,2_10 - p1 + p2 >= 0
 R136: 170 x1,2_10 - p1 + p2 <= 180
 R137: - 13 x1,2_13 - p1 + p2 >= 0
 R138: 170 x1,2_13 - p1 + p2 <= 183
 R139: - 14 x1,2_14 - p1 + p2 >= 0
 R140: 170 x1,2_14 - p1 + p2 <= 184
 R141: - 17 x1,2_17 - p1 + p2 >= 0
 R142: 170 x1,2_17 - p1 + p2 <= 187
 R143: - 20 x1,2_20 - p1 + p2 >= 0
 R144: 170 x1,2_20 - p1 + p2 <= 190
 R145: - 21 x1,2_21 - p1 + p2 >= 0
 R146: 170 x1,2_21 - p1 + p2 <= 191
 R147: - 31 x1,2_31 - p1 + p2 >= 0
 R148: 170 x1,2_31 - p1 + p2 <= 201
 R149: - 34 x1,2_34 - p1 + p2 >= 0
 R150: 170 x1,2_34 - p1 + p2 <= 204
 R151: p1 - p3 <= -1
 R152: - 3 x1,3_3 - p1 + p3 >= 0
 R153: 170 x1,3_3 - p1 + p3 <= 173
 R154: - 7 x1,3_7 - p1 + p3 >= 0
 R155: 170 x1,3_7 - p1 + p3 <= 177
 R156: - 10 x1,3_10 - p1 + p3 >= 0
 R157: 170 x1,3_10 - p1 + p3 <= 180
 R158: - 13 x1,3_13 - p1 + p3 >= 0
 R159: 170 x1,3_13 - p1 + p3 <= 183
 R160: - 14 x1,3_14 - p1 + p3 >= 0
 R161: 170 x1,3_14 - p1 + p3 <= 184
 R162: - 17 x1,3_17 - p1 + p3 >= 0
 R163: 170 x1,3_17 - p1 + p3 <= 187
 R164: - 20 x1,3_20 - p1 + p3 >= 0
 R165: 170 x1,3_20 - p1 + p3 <= 190
 R166: - 21 x1,3_21 - p1 + p3 >= 0
 R167: 170 x1,3_21 - p1 + p3 <= 191
 R168: - 31 x1,3_31 - p1 + p3 >= 0
 R169: 170 x1,3_31 - p1 + p3 <= 201
 R170: - 34 x1,3_34 - p1 + p3 >= 0
 R171: 170 x1,3_34 - p1 + p3 <= 204
 R172: p1 - p4 <= -1
 R173: - 3 x1,4_3 - p1 + p4 >= 0
 R174: 170 x1,4_3 - p1 + p4 <= 173
 R175: - 7 x1,4_7 - p1 + p4 >= 0
 R176: 170 x1,4_7 - p1 + p4 <= 177
 R177: - 10 x1,4_10 - p1 + p4 >= 0
 R178: 170 x1,4_10 - p1 + p4 <= 180
 R179: - 13 x1,4_13 - p1 + p4 >= 0
 R180: 170 x1,4_13 - p1 + p4 <= 183
 R181: - 14 x1,4_14 - p1 + p4 >= 0
 R182: 170 x1,4_14 - p1 + p4 <= 184
 R183: - 17 x1,4_17 - p1 + p4 >= 0
 R184: 170 x1,4_17 - p1 + p4 <= 187
 R185: - 20 x1,4_20 - p1 + p4 >= 0
 R186: 170 x1,4_20 - p1 + p4 <= 190
 R187: - 21 x1,4_21 - p1 + p4 >= 0
 R188: 170 x1,4_21 - p1 + p4 <= 191
 R189: - 31 x1,4_31 - p1 + p4 >= 0
 R190: 170 x1,4_31 - p1 + p4 <= 201
 R191: - 34 x1,4_34 - p1 + p4 >= 0
 R192: 170 x1,4_34 - p1 + p4 <= 204
 R193: p1 - p5 <= -1
 R194: - 3 x1,5_3 - p1 + p5 >= 0
 R195: 170 x1,5_3 - p1 + p5 <= 173
 R196: - 7 x1,5_7 - p1 + p5 >= 0
 R197: 170 x1,5_7 - p1 + p5 <= 177
 R198: - 10 x1,5_10 - p1 + p5 >= 0
 R199: 170 x1,5_10 - p1 + p5 <= 180
 R200: - 13 x1,5_13 - p1 + p5 >= 0
 R201: 170 x1,5_13 - p1 + p5 <= 183
 R202: - 14 x1,5_14 - p1 + p5 >= 0
 R203: 170 x1,5_14 - p1 + p5 <= 184
 R204: - 17 x1,5_17 - p1 + p5 >= 0
 R205: 170 x1,5_17 - p1 + p5 <= 187
 R206: - 20 x1,5_20 - p1 + p5 >= 0
 R207: 170 x1,5_20 - p1 + p5 <= 190
 R208: - 21 x1,5_21 - p1 + p5 >= 0
 R209: 170 x1,5_21 - p1 + p5 <= 191
 R210: - 31 x1,5_31 - p1 + p5 >= 0
 R211: 170 x1,5_31 - p1 + p5 <= 201
 R212: - 34 x1,5_34 - p1 + p5 >= 0
 R213: 170 x1,5_34 - p1 + p5 <= 204
 R214: p2 - p3 <= -1
 R215: - 3 x2,3_3 - p2 + p3 >= 0
 R216: 170 x2,3_3 - p2 + p3 <= 173
 R217: - 7 x2,3_7 - p2 + p3 >= 0
 R218: 170 x2,3_7 - p2 + p3 <= 177
 R219: - 10 x2,3_10 - p2 + p3 >= 0
 R220: 170 x2,3_10 - p2 + p3 <= 180
 R221: - 13 x2,3_13 - p2 + p3 >= 0
 R222: 170 x2,3_13 - p2 + p3 <= 183
 R223: - 14 x2,3_14 - p2 + p3 >= 0
 R224: 170 x2,3_14 - p2 + p3 <= 184
 R225: - 17 x2,3_17 - p2 + p3 >= 0
 R226: 170 x2,3_17 - p2 + p3 <= 187
 R227: - 20 x2,3_20 - p2 + p3 >= 0
 R228: 170 x2,3_20 - p2 + p3 <= 190
 R229: - 21 x2,3_21 - p2 + p3 >= 0
 R230: 170 x2,3_21 - p2 + p3 <= 191
 R231: - 31 x2,3_31 - p2 + p3 >= 0
 R232: 170 x2,3_31 - p2 + p3 <= 201
 R233: - 34 x2,3_34 - p2 + p3 >= 0
 R234: 170 x2,3_34 - p2 + p3 <= 204
 R235: p2 - p4 <= -1
 R236: - 3 x2,4_3 - p2 + p4 >= 0
 R237: 170 x2,4_3 - p2 + p4 <= 173
 R238: - 7 x2,4_7 - p2 + p4 >= 0
 R239: 170 x2,4_7 - p2 + p4 <= 177
 R240: - 10 x2,4_10 - p2 + p4 >= 0
 R241: 170 x2,4_10 - p2 + p4 <= 180
 R242: - 13 x2,4_13 - p2 + p4 >= 0
 R243: 170 x2,4_13 - p2 + p4 <= 183
 R244: - 14 x2,4_14 - p2 + p4 >= 0
 R245: 170 x2,4_14 - p2 + p4 <= 184
 R246: - 17 x2,4_17 - p2 + p4 >= 0
 R247: 170 x2,4_17 - p2 + p4 <= 187
 R248: - 20 x2,4_20 - p2 + p4 >= 0
 R249: 170 x2,4_20 - p2 + p4 <= 190
 R250: - 21 x2,4_21 - p2 + p4 >= 0
 R251: 170 x2,4_21 - p2 + p4 <= 191
 R252: - 31 x2,4_31 - p2 + p4 >= 0
 R253: 170 x2,4_31 - p2 + p4 <= 201
 R254: - 34 x2,4_34 - p2 + p4 >= 0
 R255: 170 x2,4_34 - p2 + p4 <= 204
 R256: p2 - p5 <= -1
 R257: - 3 x2,5_3 - p2 + p5 >= 0
 R258: 170 x2,5_3 - p2 + p5 <= 173
 R259: - 7 x2,5_7 - p2 + p5 >= 0
 R260: 170 x2,5_7 - p2 + p5 <= 177
 R261: - 10 x2,5_10 - p2 + p5 >= 0
 R262: 170 x2,5_10 - p2 + p5 <= 180
 R263: - 13 x2,5_13 - p2 + p5 >= 0
 R264: 170 x2,5_13 - p2 + p5 <= 183
 R265: - 14 x2,5_14 - p2 + p5 >= 0
 R266: 170 x2,5_14 - p2 + p5 <= 184
 R267: - 17 x2,5_17 - p2 + p5 >= 0
 R268: 170 x2,5_17 - p2 + p5 <= 187
 R269: - 20 x2,5_20 - p2 + p5 >= 0
 R270: 170 x2,5_20 - p2 + p5 <= 190
 R271: - 21 x2,5_21 - p2 + p5 >= 0
 R272: 170 x2,5_21 - p2 + p5 <= 191
 R273: - 31 x2,5_31 - p2 + p5 >= 0
 R274: 170 x2,5_31 - p2 + p5 <= 201
 R275: - 34 x2,5_34 - p2 + p5 >= 0
 R276: 170 x2,5_34 - p2 + p5 <= 204
 R277: p3 - p4 <= -1
 R278: - 3 x3,4_3 - p3 + p4 >= 0
 R279: 170 x3,4_3 - p3 + p4 <= 173
 R280: - 7 x3,4_7 - p3 + p4 >= 0
 R281: 170 x3,4_7 - p3 + p4 <= 177
 R282: - 10 x3,4_10 - p3 + p4 >= 0
 R283: 170 x3,4_10 - p3 + p4 <= 180
 R284: - 13 x3,4_13 - p3 + p4 >= 0
 R285: 170 x3,4_13 - p3 + p4 <= 183
 R286: - 14 x3,4_14 - p3 + p4 >= 0
 R287: 170 x3,4_14 - p3 + p4 <= 184
 R288: - 17 x3,4_17 - p3 + p4 >= 0
 R289: 170 x3,4_17 - p3 + p4 <= 187
 R290: - 20 x3,4_20 - p3 + p4 >= 0
 R291: 170 x3,4_20 - p3 + p4 <= 190
 R292: - 21 x3,4_21 - p3 + p4 >= 0
 R293: 170 x3,4_21 - p3 + p4 <= 191
 R294: - 31 x3,4_31 - p3 + p4 >= 0
 R295: 170 x3,4_31 - p3 + p4 <= 201
 R296: - 34 x3,4_34 - p3 + p4 >= 0
 R297: 170 x3,4_34 - p3 + p4 <= 204
 R298: p3 - p5 <= -1
 R299: - 3 x3,5_3 - p3 + p5 >= 0
 R300: 170 x3,5_3 - p3 + p5 <= 173
 R301: - 7 x3,5_7 - p3 + p5 >= 0
 R302: 170 x3,5_7 - p3 + p5 <= 177
 R303: - 10 x3,5_10 - p3 + p5 >= 0
 R304: 170 x3,5_10 - p3 + p5 <= 180
 R305: - 13 x3,5_13 - p3 + p5 >= 0
 R306: 170 x3,5_13 - p3 + p5 <= 183
 R307: - 14 x3,5_14 - p3 + p5 >= 0
 R308: 170 x3,5_14 - p3 + p5 <= 184
 R309: - 17 x3,5_17 - p3 + p5 >= 0
 R310: 170 x3,5_17 - p3 + p5 <= 187
 R311: - 20 x3,5_20 - p3 + p5 >= 0
 R312: 170 x3,5_20 - p3 + p5 <= 190
 R313: - 21 x3,5_21 - p3 + p5 >= 0
 R314: 170 x3,5_21 - p3 + p5 <= 191
 R315: - 31 x3,5_31 - p3 + p5 >= 0
 R316: 170 x3,5_31 - p3 + p5 <= 201
 R317: - 34 x3,5_34 - p3 + p5 >= 0
 R318: 170 x3,5_34 - p3 + p5 <= 204
 R319: p4 - p5 <= -1
 R320: - 3 x4,5_3 - p4 + p5 >= 0
 R321: 170 x4,5_3 - p4 + p5 <= 173
 R322: - 7 x4,5_7 - p4 + p5 >= 0
 R323: 170 x4,5_7 - p4 + p5 <= 177
 R324: - 10 x4,5_10 - p4 + p5 >= 0
 R325: 170 x4,5_10 - p4 + p5 <= 180
 R326: - 13 x4,5_13 - p4 + p5 >= 0
 R327: 170 x4,5_13 - p4 + p5 <= 183
 R328: - 14 x4,5_14 - p4 + p5 >= 0
 R329: 170 x4,5_14 - p4 + p5 <= 184
 R330: - 17 x4,5_17 - p4 + p5 >= 0
 R331: 170 x4,5_17 - p4 + p5 <= 187
 R332: - 20 x4,5_20 - p4 + p5 >= 0
 R333: 170 x4,5_20 - p4 + p5 <= 190
 R334: - 21 x4,5_21 - p4 + p5 >= 0
 R335: 170 x4,5_21 - p4 + p5 <= 191
 R336: - 31 x4,5_31 - p4 + p5 >= 0
 R337: 170 x4,5_31 - p4 + p5 <= 201
 R338: - 34 x4,5_34 - p4 + p5 >= 0
 R339: 170 x4,5_34 - p4 + p5 <= 204
Bounds
Binaries
 x0,1_3 x0,1_7 x0,1_10 x0,1_13 x0,1_14 x0,1_17 x0,1_20 x0,1_21 x0,1_31
 x0,1_34 x0,2_3 x0,2_7 x0,2_10 x0,2_13 x0,2_14 x0,2_17 x0,2_20 x0,2_21
 x0,2_31 x0,2_34 x0,3_3 x0,3_7 x0,3_10 x0,3_13 x0,3_14 x0,3_17 x0,3_20
 x0,3_21 x0,3_31 x0,3_34 x0,4_3 x0,4_7 x0,4_10 x0,4_13 x0,4_14 x0,4_17
 x0,4_20 x0,4_21 x0,4_31 x0,4_34 x0,5_3 x0,5_7 x0,5_10 x0,5_13 x0,5_14
 x0,5_17 x0,5_20 x0,5_21 x0,5_31 x0,5_34 x1,2_3 x1,2_7 x1,2_10 x1,2_13
 x1,2_14 x1,2_17 x1,2_20 x1,2_21 x1,2_31 x1,2_34 x1,3_3 x1,3_7 x1,3_10
 x1,3_13 x1,3_14 x1,3_17 x1,3_20 x1,3_21 x1,3_31 x1,3_34 x1,4_3 x1,4_7
 x1,4_10 x1,4_13 x1,4_14 x1,4_17 x1,4_20 x1,4_21 x1,4_31 x1,4_34 x1,5_3
 x1,5_7 x1,5_10 x1,5_13 x1,5_14 x1,5_17 x1,5_20 x1,5_21 x1,5_31 x1,5_34
 x2,3_3 x2,3_7 x2,3_10 x2,3_13 x2,3_14 x2,3_17 x2,3_20 x2,3_21 x2,3_31
 x2,3_34 x2,4_3 x2,4_7 x2,4_10 x2,4_13 x2,4_14 x2,4_17 x2,4_20 x2,4_21
 x2,4_31 x2,4_34 x2,5_3 x2,5_7 x2,5_10 x2,5_13 x2,5_14 x2,5_17 x2,5_20
 x2,5_21 x2,5_31 x2,5_34 x3,4_3 x3,4_7 x3,4_10 x3,4_13 x3,4_14 x3,4_17
 x3,4_20 x3,4_21 x3,4_31 x3,4_34 x3,5_3 x3,5_7 x3,5_10 x3,5_13 x3,5_14
 x3,5_17 x3,5_20 x3,5_21 x3,5_31 x3,5_34 x4,5_3 x4,5_7 x4,5_10 x4,5_13
 x4,5_14 x4,5_17 x4,5_20 x4,5_21 x4,5_31 x4,5_34
Generals
 p0 p1 p2 p3 p4 p5
End
